1519
PtCo
Pt -6.6772954816 -7.2861296065 0.5043681642
Pt -7.5906245331 -11.5222336216 -0.5509901798
Pt -4.3539476109 12.6020724399 -1.8067459943
Pt -7.5523220251 10.0419217469 0.4064020112
Pt -10.6093755114 -0.376241264 1.8825044139
Pt -8.5267872728 -7.8710190079 -0.9745659443
Pt 3.7455492627 -2.8099144113 -2.3023094733
Pt -8.7508437593 -0.116644293 -0.1460512558
Pt 13.2948733809 5.7352060977 -1.7841441932
Pt -9.7834221018 3.5041371425 -0.4662236219
Pt -7.0026512843 8.1027592809 -1.1141126731
Pt -10.6797736254 -0.7518666685 -1.7082546341
Pt -6.1980522393 12.3192173706 0.1567627377
Pt 11.9871280443 9.2127098701 -1.4772566308
Pt -6.1561188853 4.5604962497 -0.7983620588
Pt 9.3788165284 12.2647956302 -4.0200372991
Pt -10.9226644523 1.2370280025 -0.173359613
Pt -2.2864024652 3.0333083259 -6.2319470132
Pt -6.9432370819 -7.5889534287 -2.8510301188
Pt -9.3189472153 1.4597179203 -2.1571770877
Pt -8.4566632974 -7.5689726387 2.4418720208
Pt -1.3403371651 9.7495558901 0.0387808415
Pt -8.0125351296 -9.5316911246 0.9530028204
Pt 1.2401300049 6.5406339159 -1.3236673174
Pt -9.3271709449 9.8215160091 2.4147119595
Pt -8.9434922688 7.3248911176 -2.8255701118
Pt -3.8872596332 -10.5909442529 -0.9415224999
Pt -11.7857117374 2.7989521605 -2.0692139588
Pt 4.9522854493 12.8605949712 -5.8510819555
Pt -5.3189774225 -4.9822309976 0.1676087598
Pt -2.542649296 12.7912146605 -3.7738740509
Pt -5.4097050026 2.9355776847 1.1709110127
Pt -8.1932253872 11.197257619 -5.0408856412
Pt 7.1095591423 5.7784758659 -5.2131406345
Pt -10.0763931932 -10.1862967933 -0.6363591693
Pt -1.2759792558 -5.7098801499 1.9394000386
Pt -7.3441543964 7.6540113149 -4.648644465
Pt -0.6286276917 -2.1859325368 -3.9283865733
Pt -10.0790988852 3.1143389957 -4.0626119131
Pt -7.6969168657 -9.1459141366 4.4478412385
Pt -10.3191844087 -8.1657688811 0.9220413474
Pt 1.8553976915 -3.4610161912 -3.8629979458
Pt -0.1895346306 -1.2775860424 3.1565354664
Pt -12.3025224213 -0.7066072954 3.7183442876
Pt -3.1915559849 -11.7517869137 4.5185719439
Pt 2.7408399655 -7.1365062243 -3.4081811542
Pt -7.4904334213 -11.1305102609 2.9107997234
Pt -11.5405523146 3.2480085646 1.4828068957
Pt -10.7532491651 7.0590031959 -0.7123067313
Pt 1.1004130923 -1.8874709635 -5.8441353538
Pt 12.7495146442 -0.5932107021 -4.5840880116
Pt -1.4035838064 -6.0798578583 -1.4382694926
Pt -5.8826665505 -11.2167379534 -2.4204341375
Pt 4.5649763879 -6.7686188578 -5.2396439208
Pt -9.6539879467 -11.9204629781 1.4613855451
Pt 6.7590646809 13.5123531791 -3.8508901363
Pt -12.6192503316 -1.4454787583 -3.4087955955
Pt -1.8440987821 -4.070980792 0.0383759062
Pt -3.6177803652 -4.7470184425 -1.7330367967
Pt -2.6720439258 -2.8558637793 -5.4405522251
Pt -0.7673261855 0.2817065002 1.2084416787
Pt -6.2340099163 -8.8683315673 2.6266850308
Pt -7.8490434698 4.2823336563 1.0826432136
Pt 5.2817962544 -2.900124781 -7.7029486571
Pt 9.4686833977 -8.8998488569 -1.6138504833
Pt -4.3922775205 4.8501781505 -2.7618208239
Pt 3.1539121097 12.5295227211 -3.7292478
Pt 0.9835078134 6.0703782256 -4.8016934392
Pt -2.5758905489 5.1366994751 -4.6761946013
Pt -5.583963354 -10.8256448958 1.0768772194
Pt -10.0355905448 -1.9719736732 3.8548950442
Pt -7.599480339 1.8167248106 -3.9978532949
Pt -8.1024826822 -1.6633403369 1.8187131465
Pt -5.096620987 0.8619462212 -0.4622049598
Pt -3.5703549475 8.6415766822 -4.9741660827
Pt -0.0433842105 -3.767061752 -1.9486857316
Pt 6.4233982079 7.2872291377 -7.0438065543
Pt 0.3597040189 -5.8546716143 -3.5450714173
Pt 8.5784881836 -5.4055745349 -2.2757429236
Pt -2.4486070204 -2.409186266 -1.8698255766
Pt -3.4577776604 -4.3284576235 1.7707251708
Pt -9.2521084733 1.8364853737 1.366088412
Pt -11.6417300859 -10.4804953303 1.0856365998
Pt -5.1803244409 8.6885125017 0.3267660956
Pt -9.8789358856 10.9947564485 -2.9355161203
Pt -5.6765011695 2.4918928129 -2.3520211325
Pt 0.8192069315 0.5039429444 -0.5862334931
Pt 3.0011909371 -6.7154849676 -0.029875154
Pt -5.1813401256 -4.5766238643 3.7560070098
Pt -10.6795489417 7.5131615029 2.6447744815
Pt -2.9716160396 -0.8032363843 -3.8229776156
Pt 3.2034113167 7.2996486434 0.2879221037
Pt -2.4157873997 5.5930026297 -1.0286790693
Pt -4.9115520615 1.29370776 3.0443860686
Pt 0.338274876 2.1344400105 -2.6372852883
Pt 2.485964931 0.4139708036 -6.0307711667
Pt -8.1963265642 -9.9249624642 -2.575147851
Pt -0.2374617102 3.7139889419 -4.5940170224
Pt -10.9556242425 6.5711740662 -4.5832652909
Pt -5.0761579545 -7.0676484103 -1.3084823158
Pt -0.9588416149 -0.1397749261 -2.2699966594
Pt -9.2544216452 -6.3035873593 -2.88658623
Pt -7.5357098461 9.6556730162 -2.9586859169
Pt -13.4058688316 2.521350982 -0.1295272262
Pt -6.4026725695 4.1343765952 -4.2297112192
Pt -6.6024974774 -4.1943056944 -8.6961656404
Pt -5.1384292666 -7.3241792221 -4.7454091997
Pt 2.1109183936 2.4021333125 -4.551577432
Pt -4.1395563382 5.2775478115 0.8214225472
Pt -6.366226204 -1.3892997148 -0.2894414194
Pt -0.6799458966 5.8241788778 -2.9254492866
Pt -0.0390917351 4.1751429337 -1.0504564103
Pt -0.5059558189 -9.9536421332 -4.6641924472
Pt -2.2050885104 -2.0285863711 1.5997003301
Pt 1.9089074155 2.0111529124 -7.8652217609
Pt 3.7509046613 2.6504655145 -6.4364115876
Pt 4.0979984269 8.693183482 -7.0351000025
Pt -3.2822071157 -3.8952370668 5.1951471449
Pt -1.2908659951 -0.569159028 -5.8891252389
Pt 6.9707535337 0.1766293867 -0.7633045595
Pt 12.880306034 7.8320266837 -0.0108867651
Pt 8.114272372 -11.1751559757 -1.28256014
Pt 7.4171932455 -1.8273451862 -2.4265692422
Pt 10.9501120864 -8.7544967981 -3.1956424296
Pt -0.4255914961 6.2708544206 0.5342649604
Pt 1.0607309813 -7.4424282231 -1.5244902131
Pt -0.8179057144 -2.5476508726 -7.3808961541
Pt -4.5429951585 4.4456426428 -6.2712919285
Pt -1.6542663397 1.4194478247 -4.2005243959
Pt 8.3194359588 -5.7887520768 -5.5442298248
Pt 12.8974214104 5.2694412605 -4.8612522238
Pt -6.9108168469 -12.7847040045 4.7885437279
Pt -5.3485034132 8.3861382052 -2.9583733501
Pt -4.4434049361 -8.9281489424 -2.8915072756
Pt 1.7339360016 4.4822905325 -2.9593441796
Pt -4.0761478809 -2.6573843012 1.0165774044e-04
Pt 0.1440034701 10.0681346395 -1.6572832558
Pt 3.0558256114 -1.1783308967 -4.1364478156
Pt -4.1565072313 -8.2255368306 4.1845888152
Pt 0.4770075113 -5.4167439857 -0.045610705
Pt 3.9604030569 -5.2350196593 -7.3757084367
Pt -4.727259812 -1.1027871893 -1.9680659015
Pt 9.2258248585 -1.1188993703 -0.6973369336
Pt 11.8714824908 8.8435016098 -5.5825337572
Pt -3.5382532524 0.7623389226 -5.8083082799
Pt 1.472203205 -6.5533593602 5.3881020617
Pt 1.7114258934 9.9401709103 -7.1215186474
Pt 7.1659510171 11.5773337592 -5.6813560139
Pt -2.5678543029 -0.0161109256 3.1104534423
Pt -0.2909584055 -4.2454802599 -5.4631848001
Pt -2.8584285207 -8.6458824485 -4.7483521811
Pt -2.9980549354 -6.2900559634 0.4721091797
Pt -2.0032955288 3.4420355493 -2.7197638853
Pt -1.9924042664 11.7133357513 1.8224686624
Pt 11.0204268753 -0.8861311064 -2.6889052421
Pt 3.0001449469 6.7776082332 -3.2676172314
Pt -7.3763827286 2.1675000994 -0.5638534122
Pt 9.540856787 -3.5486258404 -5.8032603595
Pt 11.1288119846 7.140327719 -2.0225629865
Pt -0.7662053598 -15.4646197768 -0.5667302605
Pt 3.9224969199 3.1087988677 -2.888199457
Pt -0.9114391115 5.3721376792 -6.5164133901
Pt -3.4620576733 -12.4918564368 -2.3948327568
Pt -8.8909076755 -0.489348653 -3.6269772553
Pt -3.5623918335 -7.071086876 -6.5634105691
Pt -3.9669645212 5.7174301252 4.3706304099
Pt -7.0582311671 -13.1565293655 1.3682211594
Pt 3.5280614709 10.2025605538 -9.0304047722
Pt -1.4448011682 1.8558089515 -0.7010696014
Pt -1.5879666784 9.4208734186 -3.3436276923
Pt 3.1315858597 12.2975309163 -7.4101967967
Pt 3.5392604966 -16.0397737399 1.3372107893
Pt 0.4605128787 2.564350622 0.8267517716
Pt -3.6905199623 3.1971070302 -0.7685636303
Pt 2.1315299962 -5.50450711 -5.3633050124
Pt -5.5507416821 -10.5289443362 4.5372437783
Pt 7.6533202298 -4.2194257603 -7.3477503738
Pt -8.8799940897 8.2025503451 4.3541306791
Pt -0.8417012135 -7.7157559567 0.6309687886
Pt 4.2163117887 9.0536453144 -3.6951410404
Pt 2.3281793491 -0.0285273361 -9.6432764086
Pt -7.9859313137 3.8666499645 -2.3867095061
Pt 5.4842462093 -2.519905249 -4.0077495466
Pt -2.0687632757 -4.4849908057 -3.4660630701
Pt 6.5769730806 -6.0999862706 -3.7427723686
Pt -1.2562555103 15.1916034738 -3.8281317188
Pt -3.068859606 1.5906442161 1.2104330666
Pt -2.8415136956 2.0119310863 4.6457966759
Pt -0.5934669542 0.7384217272 4.8530313256
Pt -2.9186023916 4.7122498463 -8.0833415041
Pt -9.5992643987 3.9221826214 3.0237533244
Pt -3.8195048495 2.7836755123 -4.3596184804
Pt 7.5110953195 -9.6249481727 -3.2669384623
Pt 7.5682987913 4.0794710092 -3.1534525635
Pt 10.7770763953 -1.2989242044 -5.9798713126
Pt 4.2608784659 3.5828504596 0.5408865586
Pt 4.8112045028 7.0666236812 -5.2161122424
Pt 0.8044889139 5.5868371428 -8.5102708419
Pt 6.1041923892 -11.9179142526 -3.0998978886
Pt -10.2095153935 -7.799554708 4.5107893182
Pt -1.2667931961 -8.3786179994 -6.637679985
Pt -6.6215462169 3.7448610899 -7.867339626
Pt 6.6477959792 7.7215269885 -3.7286232764
Pt 1.9129454921 -3.0851918179 -0.4486929699
Pt -3.5200964456 3.6012858874 2.6952972443
Pt 3.4629403103 -3.2200849759 -5.5462428327
Pt -7.5686654078 7.2460003184 -8.1228663099
Pt -9.6288316587 -4.3627585597 -1.4416272396
Pt 1.5221348461 3.9957355392 -6.4892025674
Pt 14.8160297604 -7.3306189422 0.1107573568
Pt -4.9438412825 14.2379435591 -3.7028491219
Pt 3.419055716 4.7144962227 -4.9336611599
Pt 2.2766943335 2.8394008467 -1.0533547636
Pt 4.8096207864 -14.1811941524 -2.735623435
Pt -4.493638793 -0.6505845187 1.5266699689
Pt 10.3701656881 8.690866371 -3.7286501961
Pt 3.936140458 -2.3747229216 1.2402494021
Pt 0.401451213 10.4040008673 1.6513452393
Pt -4.3161769262 -3.0819710102 -3.6349614338
Pt 1.1814689979 -6.9451424406 2.0110869633
Pt 6.3861003929 1.770136577 -2.8592414763
Pt -3.1159763082 -14.4696339848 -4.0681535417
Pt 5.0174033347 -5.9766167771 1.687338917
Pt 3.0857033315 -14.4205180919 -0.9263072055
Pt 5.0930061218 4.9653901258 -6.8340897194
Pt 0.7873676632 -4.9588765951 3.6104475522
Pt 6.7227810812 -5.6889344678 -0.1567677333
Pt -2.7905001871 -5.9508741713 3.5844986844
Pt 5.4816062631 10.9509257946 -7.4884227786
Pt -7.8240162883 -3.6738905303 0.1684048701
Pt 7.8215158996 12.399402896 1.3341961814
Pt -11.4036827588 8.6378774035 -2.8139942622
Pt -9.404507316 -3.9212595482 2.0022248676
Pt -6.8231532354 8.4348124965 2.1730147819
Pt 1.0572585276 0.9528453174 2.911960242
Pt 6.6082546954 -0.5816927544 -7.9649463939
Pt -2.37974057 -7.9019559266 2.3319330044
Pt 2.1401183895 7.8931145618 -8.766274628
Pt 4.6934937801 -6.4305655906 -1.7392100553
Pt 7.6654138842 -1.3342299307 1.0523075246
Pt -0.248805445 6.7387075462 4.0492105812
Pt 4.6254627277 1.4922271209 -0.9284048487
Pt -6.2884711417 -3.7833292626 -5.1750148693
Pt -3.2441333259 -12.1730643594 0.9329346894
Pt 5.8216679596 -2.1344843141 -0.7935068111
Pt 5.6549178444 3.4001742468 -4.7873208331
Pt -0.1788045805 9.2563044751 -8.767658769
Pt -9.1664250779 6.9764335435 -6.294759745
Pt -5.9232610778 4.9504046713 2.5988486118
Pt -6.5485922418 -9.6367399526 -4.3463836955
Pt -8.3196207577 3.436120922 -6.0007688147
Pt -14.6068629438 6.0780023935 -0.4365124608
Pt -1.1665874324 2.2907027476 2.799067937
Pt 14.4889299771 0.1053868008 -2.6480937577
Pt -2.7249195033 -0.3687500537 -0.3840948563
Pt 6.0138107848 -4.1397954679 -2.2917050005
Pt -10.9335768497 -1.1286616184 -5.390896194
Pt 0.1596395095 4.6317345637 2.5211186341
Pt 13.0266687808 -7.9997898289 -1.6961531474
Pt 4.4669853587 1.1000594869 -4.5651696765
Pt -1.5987570686 -3.6110721712 3.4967217271
Pt 0.7433158903 0.1176376101 -4.1478902833
Pt -12.2645559047 -1.0299572433 0.1465008189
Pt 3.0946155968 -9.0025905443 -4.8804925398
Pt -5.8875474393 -5.7379645112 -6.7059454956
Pt -0.372585586 -1.7532128978 -0.401455146
Pt 0.2517970577 -3.321191914 1.4893623574
Pt -11.1877613879 0.8776319873 -3.769840778
Pt -1.3277467877 -11.0039192899 6.0727691246
Pt -8.2838785412 -2.090448707 -1.6156914229
Pt 13.534313592 3.7045706273 -2.9504091548
Pt -13.1831106421 0.1296470812 -5.4109123376
Pt -5.5616869097 7.9681228677 -6.5467589781
Pt 8.6732042987 8.4731898047 -1.7577297338
Pt 5.917077497 9.2941885323 -5.5678938151
Pt 0.4069780871 -2.8989283743 5.2608516898
Pt 12.4139670095 -1.1053552074 -7.5696334682
Pt -8.3361672871 -7.1542013483 6.0125920356
Pt -14.1523785578 -1.3583132421 1.9999788297
Pt 10.802110088 10.8411416922 -2.8298264361
Pt 0.0487931818 9.6715918158 -5.074946606
Pt 3.1050828217 4.2597534679 -8.3836267153
Pt -0.4856768766 3.314148365 -8.0592386791
Pt 4.4126139256 -4.3883672902 -0.4743824272
Pt 0.8114550147 -7.7502248327 -4.920208838
Pt 6.263842265 -6.5242506063 -6.9816861008
Pt 0.8319757989 -2.3006542811 -9.3106353118
Pt -8.0552218288 -4.0678476875 -3.26065874
Pt -12.2669390403 -8.9268815687 -0.9687870595
Pt 8.693485009 5.9959102235 -6.940486936
Pt 2.5271976679 0.7433416922 -2.6337020449
Pt -10.931155682 1.6053929144 3.3658461292
Pt 12.0754378946 0.9950719984 -6.44872889
Pt 5.8318681455 3.8342158123 -1.1928340477
Pt 2.5069034589 3.324458605 2.6663377839
Pt 6.3238574797 -3.6413444891 1.2489846304
Pt -2.3910001301 -15.6172795528 1.2529380694
Pt 1.8915854145 -16.3080506564 3.0347709327
Pt -8.8317970565 -13.4288034893 3.2684118349
Pt -0.9939277152 13.1210975914 -5.5806215172
Pt 6.2301079976 12.2583404968 3.1036222588
Pt 3.0078847798 -6.3170134063 3.7123002603
Pt 12.9575284857 -2.5916854861 -5.7695608255
Pt 11.7758101342 11.2194093127 -0.0987258248
Pt 12.6051869584 4.7571706919 -8.5420219317
Pt 3.4061219083 -8.6077172224 -1.4816763843
Pt -1.2418614116 12.8283603223 -9.0555095588
Pt -0.8091167077 -15.9161204306 -4.1318069318
Pt -7.8784828793 -11.9335694826 -4.0703325749
Pt -11.7902845188 -2.6381149188 2.1156587974
Pt -7.605409205 -3.2575265576 3.7627484454
Pt 3.4839010355 -0.3139004527 3.0059352225
Pt 1.2259197195 -9.7108015354 -6.6747237141
Pt -4.5693740808 -3.4467894022 -6.9853317659
Pt -7.8200052345 4.6475145563 4.6533449347
Pt 5.3159167264 -0.0540931798 0.88686804
Pt 6.5032227545 2.2591553926 0.8186146452
Pt 0.5342622639 15.8639835371 -2.5013187252
Pt -3.8401838758 11.0546834101 0.1260659898
Pt 1.6883460243 12.2940486994 -2.154301686
Pt -11.1343126777 9.028627051 0.7416075518
Pt 6.9567499673 -13.019900187 2.4394183852
Pt 0.7706483964 3.0588674473 4.495912241
Pt 5.3124502274 13.371992533 -2.1692811692
Pt 15.8320102533 -2.9639906928 1.3165897588
Pt 10.1356557625 11.1061201326 1.5701095037
Pt -3.7962587869 -2.346906512 3.3036138543
Pt 13.2366208383 -7.5692649351 1.937558181
Pt -7.2337076261 -13.6284441798 -2.2179523211
Pt -1.1762953201 4.9509186855 -10.0863426911
Pt 2.7968882137 -14.8869564829 -4.3146583627
Pt -0.1115258487 -16.9922187979 1.6033155187
Pt 7.0706977112 14.0290193678 -0.316098691
Pt -5.9744859232 -8.4698783314 6.0134850147
Pt 12.6564313448 7.385324835 -3.7770988107
Pt -2.4555080623 -10.7504482248 -6.2482415052
Pt 0.638239722 -2.428085732 8.6945248473
Pt -12.446929014 6.8015464917 0.9586795313
Pt 0.7134483751 13.5788362863 -7.3608437241
Pt 8.2819233759 2.4850139678 -1.1430040375
Pt -0.2558573636 -9.582939962 -1.3020961568
Pt 5.1108460709 -13.3112164072 4.3749720919
Pt 9.5155529276 12.6629761632 -0.4177491415
Pt 2.56292673 8.8097517413 -1.7027855997
Pt -10.6559375758 -0.0800401347 5.4165740828
Pt -0.2098285247 12.0229931381 -0.156458823
Pt -5.2879139615 0.5156997679 -3.8205512752
Pt 5.6964963589 13.7947707054 1.1843388076
Pt 6.7920870217 -5.2926664238 3.4216514029
Pt 2.9010811883 1.2380953395 1.0616438345
Pt -1.8545900998 0.9542365831 -7.7565386269
Pt 13.9854443396 1.6531884263 -4.6096214896
Pt -4.436529536 13.0398167151 1.7808657174
Pt -9.7835131661 -4.6965732988 -4.769694177
Pt 8.1455273234 2.0611413348 -4.7721145182
Pt -2.9011177477 12.4531964333 -7.0650485037
Pt -4.3537170962 -8.5884747056 0.5625288913
Pt 15.0222493739 -1.9425703911 -4.4238160661
Pt 8.538139868 0.4346418172 -2.7562968071
Pt -0.5767066452 -7.2776403514 3.8946921624
Pt -4.4066953867 12.199025059 -5.1585376566
Pt -2.1476732012 6.4860077732 6.1699471389
Pt 6.8384528517 -0.1497813408 -4.3564891438
Pt -8.9766612214 -13.9519359095 -0.3515931425
Pt -13.5518616297 2.8783388641 3.450614874
Pt -6.700691425 -1.7523273471 -3.5159182977
Pt 5.5738815831 5.9307717064 0.2856638366
Pt 8.41783336 0.0486464547 -6.3321824087
Pt 1.4256266495 -1.0709688577 1.3133687918
Pt -14.1792063787 -1.7477860667 -1.6161929232
Pt 15.3508454882 -1.4423227416 -0.7726218328
Pt 9.0304462667 -9.3804537724 -4.5793230972
Pt -8.5417918794 13.6284489467 0.1240535231
Pt 14.3437992952 -5.7451197408 -1.8867908631
Pt 10.0503594048 -5.1455833416 -3.8225690087
Pt 2.5970892185 -7.489211884 -6.8472830658
Pt -6.5239125617 -14.6680370036 3.3606654427
Pt -8.64421139 0.2599852751 3.3805897269
Pt 4.1827268263 -12.5545808214 -4.7490442707
Pt 2.9062492171 14.637155291 -2.4114059914
Pt 7.7665462646 -3.4130573892 -0.3040129098
Pt 11.6650610762 5.5561200118 0.0859838398
Pt 4.5481527128 6.621458716 -8.714109884
Pt -13.8503447083 -3.4126886287 0.5611350595
Pt -4.2274680974 10.2504050147 -6.8018829202
Pt 0.397519486 7.6729018192 -6.7421163482
Pt -5.0887531186 3.2596832506 4.198607398
Pt 9.0006807018 6.4437919405 -3.3904031229
Pt 1.949802171 4.937181172 0.5148400648
Pt 11.6829624148 6.0235652957 3.8031092405
Pt -5.7146405489 -2.5365750877 5.4651428778
Pt -4.7966330806 14.6957716029 -0.2368160738
Pt 13.4650334494 6.2106766207 1.8725980957
Pt -11.2504407932 -7.0277563263 -4.5325401397
Pt 1.0783685456 -15.1224580762 -2.4642700733
Pt 9.029275079 -1.5313705023 -4.3256394164
Pt -7.8612145144 9.2440655592 -6.5084400332
Pt 4.0550231357 -4.8071806911 -3.775748409
Pt 3.8155352918 10.6622613384 -5.5453690446
Pt 6.8209718534 5.2617944307 -8.9479962627
Pt 1.4629237721 9.4891924383 -10.8091832146
Pt 0.4852580111 -8.425352713 9.0995986346
Pt 1.2395734799 3.5761091801 -9.9041592052
Pt -1.2696272014 -3.1482040289 6.9680254902
Pt 3.8666139256 8.1807384789 -10.8068571092
Pt 5.4861999596 -10.3449330698 -4.751803681
Pt 9.6575406586 4.8399525267 -1.4940111453
Pt -4.1751757682 2.3905491633 -7.662068242
Pt 14.3696924649 2.2487919756 -1.3329940665
Pt 4.5398504555 12.0331694741 5.1878256719
Pt -15.0234962518 2.1819878551 1.615184164
Pt -5.3602034775 -7.7602982221 -8.2042487939
Pt 10.3502792053 6.2237293056 -8.9756678128
Pt -4.2305979752 -0.2411427317 4.9508520212
Pt 6.1985556271 4.3114984791 2.2054194282
Pt 13.3502553635 -2.180997583 -2.4474731651
Pt 1.5217271361 6.960974933 2.0643021996
Pt 8.8555805142 -12.2839786711 4.2330166308
Pt 12.973803409 -0.0946805925 -1.0824667491
Pt 9.9086844507 2.3008492984 -6.7537058301
Pt 3.9215348507 -15.5101491245 4.5877043181
Pt 13.3265447918 -4.7629204203 -7.0888662669
Pt 11.6680336418 -10.2249605125 -1.2114133301
Pt 15.6742871008 -3.4500432613 -2.445897351
Pt 3.0970516639 -0.831774506 -0.7343815885
Pt 2.4975772741 5.8657113664 -10.3734242644
Pt -12.0573533312 -3.0680874856 -1.4792079066
Pt -2.5114809827 2.6122772616 -9.7161344471
Pt -1.9294668233 -12.2128345141 -4.4371869582
Pt -2.1693854593 5.9749343394 2.3567923888
Pt 1.8051148382 -16.770494382 -0.5300721388
Pt -2.2531014088 -7.51549428 5.8504190999
Pt 3.7663676967 13.5226219834 3.2213334475
Pt -10.3209760577 5.531053816 1.1714638499
Pt 4.8478163074 4.55557231 -10.3752419347
Pt -12.839024491 6.2829285789 -2.5025919598
Pt -3.1071400223 9.984620081 5.6675348508
Pt 3.4635384749 -13.4462641103 6.2940157517
Pt 2.1361180843 -13.2800739264 -6.3169215023
Pt -1.9183093936 -17.8079153867 -0.1616571938
Pt 10.4049577382 -4.6837757637 -0.501345053
Pt 3.5657836688 5.1392063973 -1.4910148127
Pt -1.7302216524 -17.2688187111 3.2810285107
Pt -1.4561213992 -0.9581159295 -9.3475670494
Pt 10.4090686628 0.7917878253 -4.7642472918
Pt 2.5168365257 -4.7122687477 1.6570667204
Pt -9.7066069818 11.262302656 0.1175827173
Pt -2.4186545333 -16.1350404315 -2.2448123503
Pt 5.9967544137 11.7254238846 -0.3329643832
Pt -10.3950442479 5.7957912316 4.6811143327
Pt 8.084832433 7.5366966629 -9.0891676888
Pt 11.4196760467 2.5762795025 -8.4408084892
Pt 0.8839264439 3.5162515503 7.9778996336
Pt -12.808020927 5.9818716074 -5.7883278722
Pt 2.0713352516 13.3505486306 5.0514912522
Pt -7.9952663499 -1.2422941794 5.1811305297
Pt -3.2194311997 -1.1789535592 -7.3320339974
Pt -7.148540238 -0.2665460351 -5.599960186
Pt -3.9428377998 10.6571319398 -3.3791758359
Pt -6.9202707301 13.5649187022 -5.2885662749
Pt -1.1702893767 10.1548436494 3.474166125
Pt 7.1239752062 -12.5213973213 6.0810157443
Pt 8.0968667667 -13.3455642877 -2.2221077357
Pt 9.1587224615 3.8959927979 -8.6031881991
Pt -9.3304274971 2.2550912438 5.0695124743
Pt -12.0868809344 4.8179113063 -0.4777175174
Pt -0.4708268553 8.7622732848 -12.4479029839
Pt 13.7858296093 -3.7262974402 -0.1914394191
Pt -4.9900233519 -4.1390128815 7.2415215947
Pt -11.2336688387 -12.510066211 -0.372097009
Pt 6.4099713657 -13.9392790393 -4.4341067755
Pt 1.7943904245 12.8589457577 1.3739898136
Pt 4.3880761877 0.7121142265 -8.0441049053
Pt 2.5735802134 -2.0761405059 -11.6141895858
Pt 4.526856504 -3.8620507709 3.3361230506
Pt 2.7546300285 14.1324963611 -6.1414934382
Pt 5.7701463432 0.8550156106 -9.9724168571
Pt 11.173549988 5.0201957872 -3.0378909495
Pt -3.1360009311 -9.0538495189 -8.3551238885
Pt 0.6557755964 -13.1050127816 -0.9022676805
Pt 2.8828107443 -1.6257371557 -7.7945245883
Pt 1.4467228085 1.4447125145 6.3731989966
Pt -7.837689716 1.4650473603 -7.5872951556
Pt 3.8181061415 5.6916335167 2.2068247738
Pt 12.5645004352 -8.5616888311 -4.819546708
Pt -9.457799432 -12.2388161032 -2.2484266094
Pt 3.0517626817 15.1224699582 1.536377444
Pt 13.856030729 4.1884602293 0.446330625
Pt -0.3450410446 17.5806310829 -4.4484497572
Pt 7.5411686782 11.985491061 -1.8526317865
Pt 8.6602622111 -12.8095230387 0.6443441246
Pt 4.8159931778 2.000658539 2.66204162
Pt 0.3570262754 5.1188072838 6.0406052368
Pt -4.8861438422 3.9555597152 -9.6811618193
Pt 0.3685876428 15.3935157245 -5.8247849187
Pt -0.9616676343 2.8013109456 6.4153458683
Pt -3.7441142214 16.5831966953 -3.9494115846
Pt 11.5373933211 -2.8116002992 -4.3215551154
Pt -9.9422675725 -1.5051039189 7.3395365476
Pt 3.3308294963 13.0345063401 -0.2121356795
Pt -6.9127399265 -4.8500319744 5.5405962347
Pt -3.6038055875 11.4979669595 3.6405627763
Pt -1.9327381923 9.0277429045 -6.7006523894
Pt 9.3086237895 4.3677075775 -4.9753608642
Pt 1.2695368547 14.3621126467 -0.5344083404
Pt 5.011308817 -8.3921839932 -3.4296517274
Pt 10.0590261291 0.2799877758 -7.921291867
Pt -3.8491838047 -10.2315407703 2.4977970837
Pt -11.9203812971 5.1405547303 3.0265326548
Pt 12.7035388819 -6.0113314179 -0.1490085952
Pt 14.3351016739 -0.4690718914 -6.2075462192
Pt 7.9131478242 1.6512627332 -8.3590052552
Pt 4.5043615068 14.878554567 -4.3655771628
Pt 4.2984154194 -12.1246420353 -1.0276040715
Pt -6.1985636779 6.8793948085 4.2078670042
Pt 3.3628555868 -5.7898865135 7.1567527563
Pt 6.3837983568 10.299144999 1.6035287339
Pt 1.6348590362 -0.639014136 4.8944584156
Pt 0.6010384225 8.0483859304 -3.2404616229
Pt 2.0192113177 5.395508391 4.1999698472
Pt -11.940512361 -10.9067132529 -2.3608591419
Pt -7.9517644734 12.0511046353 2.0554906601
Pt -9.6256906859 4.3118189797 6.54964621
Pt -8.6921584159 13.3036256282 -3.5720045159
Pt 14.5185421988 -5.2624586544 1.675970052
Pt -4.8605996805 -9.3031947643 -6.2855934478
Pt -6.7023780402 -6.9513221918 4.0294331362
Pt -6.2542791312 1.7119829651 -9.4447443497
Pt -11.9901584555 -8.415525365 2.9921881453
Pt -13.0500714407 1.2359994773 5.5445372119
Pt 5.040605014 -5.5642835752 5.3513934294
Pt 5.8451068836 -9.4029416721 2.1057893652
Pt 0.09392633 -16.5206782905 5.0130851957
Pt 7.3678364721 -2.1734974465 -6.1119359833
Pt 7.2777373121 6.1184956921 -1.7096320466
Pt 2.2578852715 -2.6165810637 3.1596505024
Pt 0.6637531901 -13.4657616546 -4.3259428673
Pt 6.0977734277 6.8147766089 -10.7310018481
Pt 3.5273591231 2.2379082915 -10.0595096842
Pt -4.2345085201 -15.9296060829 3.3613060187
Pt 4.8062731147 15.3361306797 -0.6312181164
Pt 4.0705558277 -1.9269041129 4.9245268677
Pt -13.4929508442 -5.7585530105 -4.597909922
Pt 11.9174244474 -4.4502744104 -2.0605246914
Pt -1.5213072484 4.350948944 4.3359268973
Pt -13.9463202345 -3.7462428372 -2.9621912553
Pt 8.3704783219 7.9853031431 -5.3187283079
Pt -3.9079094062 8.2142446968 -8.3303895628
Pt 1.9827138484 -5.8553311545 -8.7382203628
Pt -3.8667701247 -17.9986900376 1.8565097547
Pt -4.1129523824 -10.9343287512 -4.3767549396
Pt 13.0662547261 -9.7213316688 0.6996439173
Pt -0.3662601194 1.2882724221 8.3091671344
Pt -1.8423484492 17.3775392926 -2.4106687139
Pt -4.9946069864 -3.9993906566 -10.6782544559
Pt 5.7400370134 -9.8819217488 -1.3642139008
Pt -8.5122584986 -10.2593875606 -5.9499175956
Pt -11.5809157967 8.2990594331 -6.1719517462
Pt 9.0536844244 -1.9648591272 -8.0957341047
Pt 8.1654491401 -10.7753735987 2.3877018694
Pt -3.8736775935 -12.9849969497 -6.0974518075
Pt -11.6061429897 3.5921434514 5.0024961063
Pt 16.3342192274 0.282767426 -4.6610868069
Pt 16.4958357121 0.8747030238 -1.1395151565
Pt -0.5098887226 -14.8880096487 2.8598175333
Pt -6.0302736699 12.834213649 3.4665749146
Pt 0.0122128385 -0.8349686696 6.7283396953
Pt 1.886800329 7.4930433392 -12.4487394488
Pt 8.3612848651 5.5096882328 -10.5977310389
Pt 7.5086890222 3.7037916864 -6.5853048326
Pt 4.5723930418 -1.3455874973 -9.5380704494
Pt 10.5490628592 -12.0123176584 2.1785389561
Pt -5.868942155 7.578159413 -10.0317608824
Pt 2.7315321711 9.2095188478 1.7885226771
Pt -4.667934552 -6.1730358288 5.6688869642
Pt 2.1325170143 16.2310627283 -4.3787476013
Pt -5.0330705259 9.1520565464 3.7605253186
Pt 5.4641109915 -15.3255185042 2.9364003481
Pt -15.3578808721 -3.6759147398 2.0987887069
Pt -14.378346379 4.1190005823 -2.1655836294
Pt 14.2484284693 -3.1356849737 2.9752981542
Pt 3.0760015409 1.7063126223 4.7226390783
Pt 5.8579790038 -1.6672896756 3.0356541348
Pt 12.401418856 6.9435275401 -7.1731373202
Pt 15.0073148299 0.7034567831 0.6210570982
Pt 9.6707689685 10.3419480879 -5.5738373782
Pt -6.9411771735 14.3402674057 1.818034336
Pt -0.65066147 -10.4085756168 -8.2613251307
Pt 0.479390075 -8.1834260745 -8.3671029556
Pt -12.7462191673 -7.3336386224 -2.9279210619
Pt -8.8784978236 -2.7487696796 -8.6809719821
Pt -14.0409129253 4.5056034028 1.4265147842
Pt 10.2117909763 -12.5845116121 -1.1478417378
Pt 7.1613575672 3.1461822317 -10.7378017655
Pt 12.3710879931 9.7008375735 1.6443791295
Pt -0.1288182694 1.2624185559 -9.6395253099
Pt 4.3750205066 4.0612512421 4.2347236516
Pt -4.5177055976 1.9535769869 -11.4291409086
Pt -6.1427516344 9.5616711571 -8.4221037762
Pt 6.6131950316 10.8803863561 5.2245838665
Pt -5.7210990288 5.412117745 6.3208164804
Pt 0.0631524804 12.5425487256 3.3260819906
Pt 11.1175981691 -0.4159599603 1.1825664341
Pt -10.7847748902 -6.2312009909 2.5050763925
Pt -6.7802171485 8.9490542862 5.8113796212
Pt -12.4855004195 -6.4394175791 4.6338048766
Pt 2.5945058786 3.8301945109 6.1409117954
Pt 4.7789127485 7.5172917446 -1.4970078682
Pt -0.03941918 -9.1887086741 2.298960527
Pt 8.571408398 -4.9350017944 1.6025641579
Pt -4.5396733568 7.1643845667 2.3185179139
Pt 3.8286570889 -10.6532076858 -3.0568992146
Pt 12.1929171043 3.5116479265 -1.4127305015
Pt -2.1691151328 0.426283034 6.3900411106
Pt 9.6072679522 -8.4204724575 1.8016940544
Pt 4.2158738542 6.0859298939 -12.4687683705
Pt -2.0823648875 16.7599741672 -5.8436408311
Pt -3.8941040011 -7.8037032052 7.5490155955
Pt -5.6122681954 -5.3400214772 -3.2429985887
Pt 0.2659189341 7.2393449623 -10.3454343755
Pt 9.8253073234 -5.6330760624 -7.227507089
Pt -9.3591237982 -3.5505862094 5.7703081714
Pt -2.9803920253 -14.1586820988 -0.6763018393
Pt 5.3548454398 0.38257534 4.574422329
Pt -2.6556735021 8.542458098 7.7197549889
Pt -9.2676597322 -0.8673963853 -7.122006792
Pt 10.0546958901 8.254560273 -7.5418061742
Pt -0.828782168 10.8209682985 -10.7756819773
Pt 3.1925957717 -14.0273880556 2.5139907179
Pt 5.7766718926 -12.376725238 -6.4013449085
Pt -14.4820752292 0.3114255093 -0.5041144409
Pt -11.6929599603 -2.166897318 5.7027091499
Pt 9.3482202434 6.9396569072 0.1186916781
Pt -5.7433736846 11.203829852 5.7022806907
Pt 7.0058736871 -2.724140038 -9.5415991909
Pt 2.3752967303 -2.2103680945 6.6941147425
Pt 10.1525870169 5.8122785701 5.5494924396
Pt 5.1252223453 7.949871388 1.9915238499
Pt 14.4782887667 5.3297244613 -6.8649197862
Pt -13.8942994883 2.0594250544 -3.6390105546
Pt 12.3686655162 -3.8872426077 1.322513783
Pt 10.6128542843 -1.7428954944 -9.4413860211
Pt 2.27919304 11.1369882648 3.5640516062
Pt -10.1654945398 10.6372741478 -6.4479786612
Pt 4.4691539496 -14.6528825947 -6.1825803412
Pt 1.3503701287 14.7900569878 3.2616182908
Pt 7.4771753921 -14.6277182411 4.5102207865
Pt -1.656888744 -1.6223494907 4.6344777028
Pt -9.5794940612 1.1782620765 -5.5205583768
Pt -4.5048008645 7.7189391365 6.0150260288
Pt 10.9798803648 12.8084890266 -2.0173463763
Pt -6.0689346155 -16.4460872955 1.8457163382
Pt -0.2107481869 -6.8106406738 7.2050387576
Pt 7.8471073063 -0.8934891548 4.6779610456
Pt -9.8985728582 8.5425364662 -8.0542552401
Pt -1.117034788 15.5634136904 -0.4946666931
Pt -1.6270028673 -11.5109658597 2.685457577
Pt 0.9897114079 -12.6321448267 2.6381776464
Pt 10.6913854774 4.040668674 -10.0477395058
Pt 10.7870137896 -9.2238943457 -6.0674170291
Pt -1.6134355048 -9.1105927954 7.6934527801
Pt -3.2130322351 4.1903614726 -11.670766877
Pt -4.3066747992 -16.4431898425 -0.3169908219
Pt 8.4839098721 14.0611833234 -2.0041874059
Pt -3.2658706243 6.719203922 -6.3884895277
Pt 1.5178995828 1.4727289888 -11.7796003328
Pt 3.3483790648 -3.6322910709 -9.0827289315
Pt -3.6070497174 -1.5770083956 -10.9858931035
Pt 7.7590490341 4.5582883623 0.5969764581
Pt -8.1957577445 8.8459202492 -10.0372685523
Pt -5.4296784913 -13.2308202604 -4.2164463775
Pt 13.8899151392 1.2554623693 -8.2419026422
Pt -6.7026566682 6.1216769772 -2.7011677197
Pt 6.0378625387 -9.0416701692 5.647415233
Pt 13.306366362 3.2352396393 -6.5862043013
Pt 2.9212663001 3.7027497842 -12.3634896911
Pt 0.4757323335 5.1047664988 -11.9971932321
Pt 9.8856513404 5.3665059771 2.1045496913
Pt -2.5211511698 7.9147152061 3.8671410831
Pt 5.7836200268 8.8977110141 -9.1410347312
Pt -9.4852355694 -6.8026165581 -6.4490027041
Pt 9.4188515115 -0.653873857 2.8405313918
Pt 5.2663423831 2.47061583 -12.1656695835
Pt -11.7007982058 10.6027668137 -1.2915534041
Pt -14.4608100933 -2.1791950062 -5.0537282834
Pt -10.9314801522 -9.0250453421 -6.1388146731
Pt 14.3162179461 7.8532248247 -1.5598931965
Pt 0.0933011969 -8.9213237557 5.679845843
Pt -3.0769425341 15.3787478358 1.3499595289
Pt 1.4719332132 -11.756799859 9.6085811078
Pt -5.3082869968 -1.7701810437 -9.1462509426
Pt -15.7750704014 3.8696332626 -0.3719067337
Pt -1.563159482 3.8955288803 0.6364893096
Pt 0.1953002773 -0.7432409438 -11.2195773658
Pt -4.8457974563 9.8192504111 7.6572995404
Pt -3.7348494247 6.1506465291 7.950766147
Pt -6.6397244692 11.4912585163 -6.7567494427
Pt 12.4656653781 1.4295484089 -3.0634981945
Pt -7.6766584862 10.5146714143 3.917754316
Pt 10.5754198416 9.8537363154 3.2358765189
Pt 6.2742632277 4.6752474659 -12.4002291467
Pt 0.1288058876 6.7617609658 -14.2768094162
Pt -0.1442388598 -11.9573099563 -6.3547304808
Pt 1.4733881163 -14.1374741763 4.6009679846
Pt -1.6452553474 -1.1226163823 8.5594911833
Pt -8.606954596 7.7115149209 0.6935273059
Pt 14.9427525487 3.7579388951 -4.5501508124
Pt 11.6429946013 -4.8698323415 -5.1284471297
Pt 0.6573604739 -0.2412977313 -7.5476630651
Pt -8.62818532 6.5708431043 6.3635506574
Pt -4.8516192772 15.29228921 3.1625107264
Pt 0.6741192058 11.6912250112 9.012504094
Pt -4.1918842637 -5.488952066 -8.5992756203
Pt -2.7838359527 -5.5083615489 7.2349627285
Pt -14.4500428848 -7.2244392212 2.7312423668
Pt -4.6128042941 1.6915917147 6.5380960708
Pt -5.5332042313 16.4024378625 -2.0124047484
Pt 1.5863237203 -6.0579916334 9.1129212613
Pt -4.8864593245 11.824489824 -8.8744242652
Pt -6.1442945919 -6.2537651037 -10.2849101518
Pt 0.5650638345 16.2453130361 1.732437377
Pt 8.3020611731 11.0143805342 3.4305228542
Pt -13.2829173469 -5.2643110044 -1.1891782024
Pt 3.5254043345 -8.2929412933 2.0506868573
Pt -4.702216251 -13.9638346732 5.0128989952
Pt 7.3247467077 -6.739032781 5.3963817752
Pt -8.5485571056 10.8334057607 -8.246293613
Pt -7.1933413858 -5.2057722994 2.2404331119
Pt 1.1803627436 8.5528819614 0.0185725777
Pt 8.8949030306 -9.9046203802 -7.9556649768
Pt -1.4558547577 -14.2479576883 -6.1636255526
Pt -3.0888426552 -3.390561809 8.9347911632
Pt 7.70469649 -8.5173803164 7.8048296247
Pt -10.3559979852 13.0265078885 -1.6712307152
Pt 5.5057595735 -5.01968357 -9.3718879253
Pt 5.3172388266 -15.7380689375 -0.522498052
Pt 1.500819577 -1.4436653304 -2.2725187717
Pt -13.1389999114 8.3452722291 -0.7596957511
Pt -1.5426623168 14.9549001208 -7.5156298415
Pt -7.3476497339 15.6913931756 -3.4900315273
Pt 7.3054040934 -15.0300784466 1.0521215148
Pt 8.8153282714 9.6578225585 5.0352836884
Pt 8.3487233143 -10.0910208264 5.7142471139
Pt -2.8921003122 -3.2452484889 -8.8748160737
Pt 14.9476663656 6.3129862726 0.3761520642
Pt -15.9213810486 -2.0810056507 0.5464280994
Pt -7.7514935938 -6.6040709189 -8.3647075574
Pt 5.8270481719 -14.8122444071 6.2495851735
Pt -8.3156473321 -4.4371970153 -6.5811000885
Pt -6.5444670753 14.0057270674 -1.6976301341
Pt -3.7026500479 -1.8129364677 6.9508734444
Pt 4.17160466 11.5149985372 1.5191715569
Pt 8.8260610848 -4.5430063643 5.0440883124
Pt 15.5757530108 -0.9567339223 2.7141709223
Pt -3.4241679767 4.105551728 6.3855508805
Pt -3.484477873 17.0413218741 -0.5075427627
Pt -0.3012008178 -14.499967014 6.7309204488
Pt -0.5921121129 14.0742687486 1.5352867751
Pt -1.3311170634 4.9037077829 7.962391633
Pt 10.960978322 -6.2120678857 1.6389190115
Pt 3.3325087894 -16.5132441955 -2.1658091975
Pt -1.8291896517 6.5236964638 -12.1132873799
Pt -6.1857272782 -11.599006825 -6.0843892333
Pt -14.0605402523 -9.1656968731 1.2215259539
Pt 1.2437783879 -3.9303305871 10.6271584929
Pt -7.3996338197 -8.7579323928 7.4396908116
Pt -5.796279771 -16.1332644786 5.3784582109
Pt 11.5467697914 -7.7957724764 3.6220067757
Pt 12.0163652752 -11.7977684466 0.4490895997
Pt 3.8713894261 0.1960016939 -11.4905305658
Pt -10.3630124743 5.0795100289 -2.536558973
Pt -15.2263900523 1.7393122702 -1.888280608
Pt 10.534867873 -6.7631558685 -1.59530174
Pt 13.8727350486 -8.9503933095 3.5984738708
Pt 3.7699164128 0.1970617302 6.4508424056
Pt 3.9098365956 -7.3721039259 9.2053329738
Pt 2.0166414732 -0.0824515594 8.3004226334
Pt 15.2878119395 4.2815133811 -1.0881424791
Pt 9.3644560066 -6.0061580964 6.9952064736
Pt 9.2435819213 -14.3551507952 2.5561792871
Pt -8.8965661382 -8.2741567734 -4.4841869445
Pt 13.6730892023 9.4773590502 -3.6099322654
Pt -3.0695709173 7.1284785257 -2.9018831009
Pt 4.721880603 12.4951448365 -9.025894851
Pt 4.156729309 -7.218749075 -8.8129477194
Pt 7.0717617925 -4.7794270194 6.9177354942
Pt 8.8797707322 8.8690964378 1.8067006025
Pt 8.4639337674 13.7400943892 -5.9051793412
Pt 1.0401008862 11.5454112506 -9.112779304
Pt 8.8911604877 0.9637383993 0.9974315729
Pt -1.9590592051 -7.0185887615 9.1471306366
Pt 9.7567977754 -8.026354782 5.5863372784
Pt 11.6369734049 -5.3653598159 -9.1391488884
Pt -9.5637300397 10.0811547368 5.8243800441
Pt 9.8841342411 2.711426789 -3.1343580305
Pt 7.1119530332 11.2497054708 -9.1639781015
Pt 1.7929924048 -13.7955060422 8.1212811934
Pt 6.4784136796 -10.6012036453 7.6649499481
Pt 3.6222519699 -5.595655369 -10.7946711126
Pt -6.9925085043 -1.9800260407 -7.1137173312
Pt -11.844448792 -5.5310440614 -6.5096441196
Pt -11.3091761787 6.2488495489 -7.9149392344
Pt 5.3376306088 -4.9992772241 8.8764167886
Pt -11.4489578576 -10.1808759152 4.7612758821
Pt -7.3421842789 -2.824321042 7.152802793
Pt -11.5697343154 0.5571766141 -7.0704072666
Pt 3.7451477681 11.0847390166 -1.765533961
Pt 8.9905547031 11.7243795529 -7.2432967318
Pt 6.659235027 2.7040651064 4.358694342
Pt -5.1378330663 13.852071807 -7.0663389608
Pt 1.4529198833 9.3659601554 7.121368499
Pt -0.4073595476 9.1314343294 9.2953313712
Pt -8.9572436872 -5.1136447748 7.8548673454
Pt 12.026690008 0.591171962 -10.1570652492
Pt 14.0318661328 7.4119622527 -5.4783547013
Pt 16.0380576241 -4.9928999069 0.0518194655
Pt -2.5184960043 10.5076693376 -8.7664196991
Pt -11.9467066232 2.4299810525 -5.665669308
Pt 12.4185395941 -3.4912842972 4.9102432311
Pt 5.8701608511 -6.4126140301 10.9683205018
Pt 2.9084677068 -11.4068211235 7.8469023795
Pt 1.2297763482 8.8774109615 3.3649013245
Pt -14.6678171354 0.5253014658 3.5258577814
Pt 10.7177182377 -3.7445417155 6.8267041593
Pt 4.9506201498 -10.6457600725 9.4623731059
Pt 6.9657447352 8.5438328975 3.6789337444
Pt 7.7870549587 -6.3482492678 8.9976959885
Pt 3.6320723247 -11.0097949263 -6.445437491
Pt -6.6538212514 -15.0865580244 -0.3584513994
Pt -2.2046044513 -15.2107414729 4.8472467891
Pt 7.1316591271 -7.2143539946 2.0502954428
Pt 4.9163526616 2.4331411085 6.2775713453
Pt -3.5519253056 12.0184762526 7.181365565
Pt -5.90953601 2.0621093509 -5.8753245503
Pt -3.883045868 0.1250869485 8.1497353067
Pt -12.5222828731 -9.2553363069 -4.336916899
Pt -4.6162902313 9.8363021718 -10.4470242157
Pt 9.3199789665 9.6420416281 -9.0420699405
Pt 10.0115449498 -7.58122395 9.1194840494
Pt 4.6967888103 10.8385734238 6.882515952
Pt -14.6658024307 5.5966798082 -3.7478189413
Pt -3.8067243567 0.3733802228 -9.3107811611
Pt 9.5252729767 8.0545480346 7.1566950675
Pt 8.2164352657 5.1572331042 3.9590653712
Co -3.2053014678 1.1786741142 -2.3594883093
Pt 5.3314958467 3.0683116713 9.8355566938
Pt 7.1960961665 0.6426844852 2.5936821109
Pt 10.6092477835 -11.5417672607 5.8360437986
Co 0.2036673396 1.7070752086 -6.1779408216
Pt -0.9245709376 16.0489486908 3.6030026165
Pt -7.1812765919 5.4406418239 -9.7701160015
Pt 0.7963780085 -15.5843583712 -6.0053985179
Pt -2.2105296282 8.5614726513 -10.2896007139
Pt -12.2626414024 -3.3975688779 -4.8876527244
Pt 1.5213099932 -14.678545399 0.7420364881
Pt -10.0825602884 -7.3459940101 8.1903177353
Pt -13.1364433099 -4.5367246606 6.0328731321
Pt 11.2218328205 10.3769915403 -6.8931052675
Pt 10.252873848 -9.6997008263 7.5650961549
Co -0.4687680946 -8.0202423929 -3.1320559537
Pt -11.9431720509 -8.0772381812 6.4087216682
Co -5.9669932404 -3.4830454595 -1.8745409342
Pt 7.4891557957 -4.2103762949 10.673134615
Pt 8.1856161326 -6.2361638409 -9.2760317214
Co 6.2118466848 9.8129112516 -1.9523258546
Pt 7.7933185566 7.902063868 9.0035555983
Pt -8.0280964141 12.5150829089 5.6805257664
Pt 9.5923827965 1.9008050305 -10.0650718483
Pt -10.2625628696 -10.6145585616 -4.1681048173
Co -6.7330615794 0.1972123253 -2.1923134643
Pt 2.6019210076 -7.595435548 10.7419768962
Co 2.7754345048 6.302378006 -7.0727875714
Pt 2.4142295182 16.522319059 -0.5552553392
Pt 1.9516254965 -8.2183226157 7.4555730197
Pt -0.821996631 8.7530683505 5.7316364318
Pt 10.3627817889 -4.296156838 3.538251801
Pt 13.8234770611 -1.1205153263 4.5558575584
Pt -0.2734030547 7.2600088686 7.6250895555
Pt 1.0742783277 -12.1342356507 6.2188565495
Pt -3.0852646594 9.4150196255 2.0270521547
Pt 3.1583398261 -3.7933852718 8.3820811042
Pt -14.8458428256 -0.2118718205 -3.611727632
Pt -0.8111650254 -2.7193182876 10.1062958748
Pt 13.9476822971 -6.2213528784 -5.3256758672
Co -3.248884555 9.0496695444 -1.5534288124
Pt 4.986565558 10.3314679215 -10.554718038
Pt 14.4183044894 -7.8766247351 -3.1518274029
Pt -9.1643721539 9.348818101 -1.1767771139
Pt 2.4865395789 13.9070487078 -9.6541899367
Pt -10.5855356582 -14.0591329584 1.53201992
Pt -11.0937581779 -5.8093568606 6.2243553819
Pt -10.7609078885 -11.8058747613 6.11204735
Pt 6.994974993 -15.4997939146 -2.4282948879
Pt 13.664191438 -1.7441275376 1.0961157124
Pt 11.2442549833 2.2429750827 6.0754188578
Pt 5.2515372844 8.4229521946 5.3937001744
Pt -2.4122706454 13.8591640146 3.4231952418
Co -5.7284645588 10.2175736309 -1.5518777758
Pt 10.4900241613 1.1601368834 -0.7429657527
Pt 0.979385122 -4.4276705584 7.1320414739
Pt 12.1673548162 3.9679286134 2.2590509644
Co 2.5512884853 8.387291666 -5.3067347249
Pt 8.76200992 -14.8337364926 -0.6369404033
Pt 9.2298275836 -4.0382732302 8.6498443696
Pt 6.174040424 -1.1071191884 6.5646547222
Pt 15.7360347927 2.674381606 0.9413689976
Pt 1.1824454606 -4.3514022378 -10.8339263617
Pt -6.7917297928 1.3960230356 8.7386169803
Pt 3.171541826 1.675525187 -13.7634759337
Pt -3.1917987911 -9.3913139769 9.5401143521
Co -13.4086170738 -10.7184485324 2.8994343743
Pt 9.6429382589 -0.3408324365 -11.1345152288
Pt -14.8160350914 -5.1463115765 4.4191714633
Co 4.921923751 -8.7542989788 -6.7701845068
Pt 5.8045271152 -7.0788875828 7.340226178
Pt 3.1485969093 -4.1996599747 4.9135821029
Pt -9.5830282373 6.7629684205 -9.8722849714
Pt 7.1015181561 9.5189372857 7.0011204783
Pt -14.6248993098 -7.4542706247 -0.5762369534
Pt 8.4492451873 -7.8815825818 -6.862307416
Pt -1.1010152496 -3.0296787282 -10.8698314436
Pt 4.6640161591 -3.5785438808 6.6197589704
Pt 8.30569204 2.8199123372 2.5794215939
Pt -6.5792983745 9.0710529386 -11.9094204402
Pt 12.6444996252 2.3669941596 4.3119319612
Pt -7.8734136447 6.8875881894 -11.7130736183
Pt 7.285939491 14.4813103914 3.3854487054
Pt 3.7350407441 8.1296081331 7.2806181273
Pt 0.7318763875 11.0014730902 5.1796251822
Co 5.655613107 11.2365897516 -3.9263010655
Pt -15.0210202254 -5.621411282 0.8422497949
Pt -13.4734110564 -4.9947443702 2.6472266794
Co 6.6257983198 13.1192084457 -7.7495638419
Pt -10.9287026402 7.817070453 6.2780498234
Pt 13.3682390574 -7.0700593544 5.3706533343
Pt -8.5948657277 0.6740972773 6.9764157791
Pt 1.8618848124 7.9108279863 9.3115482128
Co 7.9898919402 -9.1616239388 -0.0241577298
Pt -13.7982763951 -3.045557623 4.2758644552
Pt -4.2662896684 13.6483602732 5.4710809099
Co 5.5029126071 5.4875022403 -3.2918580851
Pt 4.4543003097 -1.4348819622 8.4072934612
Pt -4.4670678454 -11.4397247938 -7.9024223843
Pt 2.8858404731 9.7780107202 5.3725396852
Pt -0.3835899138 -4.5006822529 -8.922246962
Pt 9.4583683177 7.3040969225 3.5538170374
Pt 5.4005875684 9.1855633681 8.9129720548
Co -5.8694062795 9.8846631384 -4.9969855788
Pt -7.613774156 -0.5387736881 -9.1453059467
Pt -0.841301132 2.8144689397 -11.7382943856
Pt 2.1021143076 -15.8147004546 6.836516006
Co -5.7171246117 -3.0192992108 1.7732185594
Co 5.1565513609 -13.780180091 0.6065505938
Pt 1.9295333382 -0.6441502759 -12.9473052773
Pt 2.2585660274 5.7765398045 7.6415654345
Pt 3.7064099166 -7.8758728704 5.4113877201
Pt -12.465452044 -0.2530928942 7.3740655109
Pt 14.4542065859 -2.6609117279 6.3281768768
Pt 12.2939334435 4.4246786528 5.8131262988
Pt 15.1177962877 -6.7898283625 3.5008239371
Co 6.983581205 8.1646757624 0.0265722193
Co -1.7422116083 -6.8516971571 -8.565340142
Pt -9.1150347797 15.4926141073 -1.6398449499
Pt 15.3123279358 -3.9819210777 -5.5648606551
Pt 15.6807390649 -5.6385270299 -3.5345799825
Pt 5.5265405905 14.6059271394 5.0819032217
Co 6.3842282383 15.4956683125 -2.459747795
Pt 4.3603280097 6.5609722115 9.2536087716
Co -3.875009607 -15.5962039187 6.9029205109
Pt 11.3541892684 -5.0974969615 8.7424442051
Pt 2.1695039467 -7.9865936586 -10.2515967837
Co 2.1368889909 10.1886763709 -4.0432659655
Pt 0.951479356 2.9942856728 -13.8662329961
Pt -2.2431809914 0.5824934628 -11.281568034
Pt 0.0769115118 -6.2569138811 10.7456293683
Pt -8.9917398635 12.9184052762 -6.660822311
Pt 5.0838368334 -3.3655131567 -11.0617954553
Co -4.3021043436 -6.5360882303 2.0085471672
Pt 12.052401966 -7.0012541884 -6.5381665641
Pt 1.6074310952 7.4368450841 5.5105478675
Co 2.0390446522 15.6859447485 -7.4989656786
Pt -14.4379711019 -1.0421743924 5.8557270392
Pt 14.6305855422 -2.4419068233 -7.5327377543
Co -0.7049145336 -12.5428111789 8.1189792798
Pt -1.241470695 10.7745560928 7.2224205654
Co -4.7872472015 -1.5088689221 -5.4113377091
Co -6.5788195005 -12.1956815505 8.4976260229
Pt 10.0933837828 -2.0745628882 4.7390443477
Co 6.4598900063 1.4079003569 -6.4333637027
Co -9.8569925624 1.0026090573 -9.0360137153
Co -2.1178554851 -12.6857600564 -8.1732366472
Pt -0.235549939 14.5117128352 4.9424958954
Co -7.41313311 -6.0642139007 -4.8257826486
Pt 3.5598871144 -5.1384127054 10.6903481404
Co -1.6469475907 -9.9576240739 0.3295195491
Co -9.650924962 -9.5320002777 6.300520559
Pt 12.9545260419 -3.1225837613 -9.101361924
Co -9.6685912134 -9.8139484361 2.8226703237
Co -12.6970547119 -6.0953788599 8.0734612573
Pt 2.5250089198 11.8876289753 7.2470437819
Co -2.3881234168 -8.4793998275 -1.6387144933
Co 4.3675565994 14.49985543 -7.7107578545
Pt 11.7532207297 -1.9581394313 2.9730566437
Co -3.4164673922 14.081169267 -9.2719328938
Co -2.2064365938 10.8244113189 -5.2031978735
Pt 0.3297814281 13.154462634 7.043822626
Pt -6.9279667216 3.3389458088 -11.3064787807
Co -4.9782105552 3.7753102374 8.0264808388
Co 4.5785161068 -11.792024553 2.0726879763
Co -9.2144305087 -3.1000786042 9.3460796776
Co 2.6509398531 11.7014525513 -10.8051498761
Co -0.607840856 13.5605794788 -1.893197668
Co -7.3005942992 16.0215902957 -0.2645218227
Pt 5.8366816241 7.0403883666 7.3317923635
Co -1.0937358575 7.3664921885 -4.9305391009
Co -6.8035419153 -10.0945991322 -7.930309674
Co -5.1306264386 -12.8623355982 -0.7236763986
Co -8.6220058528 -13.1008519329 6.6998295632
Pt 8.6260373074 -1.621869335 10.0835834644
Pt 10.8278298518 -10.9172526132 -4.4201053545
Co -0.0167411715 16.9128429406 -8.346252666
Co 6.7624602106 -11.0302349209 3.9392922514
Co -6.3165415493 6.4999579539 0.7363650043
Pt 11.7838674839 -7.2703694003 7.1740053917
Pt 12.0108749868 -1.3127826696 6.4486383133
Pt 3.3049161177 2.2773892149 7.9954743175
Co -15.4942907072 -4.0184181455 -1.1546015131
Pt 9.4097839588 1.9205595404 8.0194731554
Co -0.246486625 -6.7231728641 -10.3568313612
Co 6.5832577565 -8.6336339439 -8.8575073686
Co -5.7787118415 7.268385133 7.5398869803
Pt 10.9781400738 -5.8259033374 5.1380735309
Co -8.6175905571 3.0629534844 -9.2607742351
Co -5.5592027545 5.5418492852 -11.8006859084
Co -10.6866091351 -6.6349786938 -1.0798303766
Pt 8.7167655552 3.573120734 5.9670343635
Co -0.7710982224 7.73343184 -1.5855389979
Co -7.2106107412 13.2076624575 -8.6844970486
Pt 10.6844869823 4.4243684447 7.6470103449
Pt -13.505842373 3.2303093741 6.9431304893
Co -8.4866466547 -15.3182622885 1.7121701691
Co -12.8176686951 -1.8320581978 -6.8103531456
Co -10.9415932873 2.0411227948 6.9924369893
Pt -0.0777448032 -1.180388726 -14.2487573761
Co -0.4767775481 -17.6197427517 -1.8093934503
Pt 13.8194788769 4.5413520239 4.2056847126
Co -4.713067474 -12.1371043237 6.0106744548
Co 2.3926731367 -5.2342172208 -2.2730673112
Co -6.8040719637 -4.4507145201 9.271848197
Pt 12.9224013377 3.0988253795 7.6681163152
Pt -1.6687374256 6.7859074153 9.4009122957
Co -5.9703255498 -0.3517501663 -11.1084244196
Co -8.9107152189 -6.0543847491 0.3772757557
Co -6.0356238765 -14.2717892688 6.6989339436
Pt 6.9441715475 3.2341979737 7.8885529341
Pt 6.4549019446 -0.4160918301 10.1725725331
Co 2.4718280378 -12.9495008207 -3.1223667601
Co 4.7407086113 9.4261132024 -0.2181318341
Co 1.7072047046 -3.9138175867 -7.0663987382
Co 7.7334073489 9.5120863525 -7.2178290473
Pt 12.7451231496 -2.8552504216 8.246486804
Co -11.4935083028 -5.1306103284 -3.0974387617
Co 14.9843931146 1.1273245223 4.2881175472
Co 5.7231959519 -7.13063276 -10.3157435902
Co 2.1782909586 -10.3710907632 2.3757744486
Pt 15.35665836 1.7105317714 -6.3079904412
Pt 8.1476607046 -0.3780553724 8.2125243238
Co 12.168067257 8.0589796687 4.6325560536
Co 4.8273972808 -0.9163021506 -5.9934109326
Co 2.0208809648 10.6254486682 -0.1284959142
Co 10.3751296323 3.7304886598 4.1826156893
Co 5.961940078 -1.3318904035 -11.6603884368
Pt -7.5692851421 11.0207585206 7.4740253035
Co -9.4315498986 11.6800259855 3.8103294926
Pt -0.8136499164 11.5888330794 10.3803423412
Co -7.7623953705 -8.6217068875 -9.7549440227
Co 1.2934332759 13.8222724698 -4.3990079152
Co 9.2077813012 -11.4861257439 -5.8199655818
Co 9.8047425933 -2.6472091262 1.0440558608
Co 7.7734908836 6.7061259526 1.8466139396
Co 3.7921483234 16.557139021 -6.2640538659
Pt 3.2298679901 10.2983548036 8.8504731899
Co -13.2182400508 7.9712206125 -4.1751372028
Co 1.8316932828 -8.9699752221 0.1701760258
Co -3.4177150415 6.4019692859 -9.9971340732
Co 3.5483510232 7.6736555232 3.8408056977
Pt 10.3585843956 -1.5890771624 8.4467192537
Co 0.6052340739 10.9049220521 -12.2547828058
Co 7.3217947912 -12.00646607 9.9126865478
Co -5.5011042881 -2.0384335194 8.962147672
Co -10.5029291348 -3.1172897009 -6.8378971104
Co 2.6533265247 -12.5477368014 0.6200416122
Co 2.8457880139 -4.1984119124 -12.6694276845
Co 9.0879277707 1.3354051918 4.4781524303
Co -5.8706864788 11.9837292589 -3.2170309637
Co -11.315065346 -1.3035750399 -8.6906027404
Co 4.6485576009 -11.1434478402 5.9172002331
Pt 17.3131430191 -2.638927727 -0.5611974309
Co 0.7822535011 5.4602591103 9.5121653452
Co 1.3811805357 17.7099517132 -6.6060348763
Co 1.920685949 -8.6750865316 3.875854401
Co -3.3506025125 -17.4441995011 5.289518628
Co -6.1612404087 -1.0482513219 3.2446800451
Co -5.6447393274 13.2923322226 -10.357068213
Co -7.0687516235 -10.649075045 6.4360993068
Co -1.196250941 -13.9049422051 -2.6087265946
Co 5.0361732393 15.8267758459 3.3544074106
Co 8.7413045919 -9.9145579723 9.3747800241
Pt -2.9285975542 10.538262614 9.1675910391
Co -7.273150168 -5.7166174683 -1.3894187961
Co -1.5483806067 -12.0018790406 -1.1317192374
Co 5.317643167 -12.7286237613 7.938204433
Pt 3.7154239782 14.4683017884 6.6933128571
Co -2.6550443606 2.5565037772 8.2236026188
Co -5.1044481412 16.7864722565 1.1697292697
Co -10.0335703557 -2.4448546486 0.2506476353
Co -7.401902765 5.051754566 8.0212173274
Co -3.997706072 -7.6349290166 -10.2117288385
Co -9.6033375185 8.8650068336 -4.6217509833
Co -5.6527259117 15.8319119493 -5.7732637912
Co -7.3801522233 -2.5594351315 -10.5783187859
Co -10.1005345168 -5.3220501639 -8.3010654745
Pt 8.5009430163 -7.6873112253 10.7646597323
Co 9.0476184772 -11.9260960962 7.706042504
Co 13.4698891789 -4.3149845308 -3.4265718717
Co -7.8407088343 -0.7582454306 8.740442133
Co 4.2182703232 -10.1629201118 0.3723220304
Co 6.1309160226 15.1565208773 -5.7105936649
Co -2.9045406196 10.072290606 -12.4608430764
Co 9.7150115576 -0.2041067697 6.4932525812
Co 4.3889142448 -9.3979900326 -10.2049977781
Co -4.6476542406 6.7662397818 -0.9946743241
Co 14.576249776 3.1854159241 5.7059354642
Co -0.5834284212 -4.8018463797 8.8051359681
Co -13.9431107586 -4.4017610662 -6.965042096
Co 5.7706089938 -7.5436202573 3.5533973259
Co -2.0909468769 -4.7701553494 -6.7905844294
Co -3.0564040845 14.8724922398 -2.0404591134
Co -15.9108800422 3.5588941091 -3.6550368623
Co -9.3666440047 -10.9522346327 8.4449847186
Co -4.1947021242 7.7657469459 -11.981024202
Co -11.5975577631 -4.8115980033 0.5750054711
Co -2.7028861656 7.3986264852 0.3518586226
Co 5.0838944732 0.2474695079 -13.0984415957
Co 2.7604278869 -9.637322398 -8.1399700228
Co -6.4979819616 0.6543593687 1.3799383103
Co -5.0150905563 5.73615114 9.6024648914
Co -10.8992900364 -8.6541476968 -2.5283886001
Co -11.8018729384 3.9487182969 8.7943364233
Co -2.2258827655 -10.4070842554 -2.8212398844
Co -6.8613923832 1.3829000795 -13.3045643465
Co 12.3102149371 -11.1376145317 3.8772478243
Co 2.7202225552 4.53657164 9.4329283257
Co 4.4701445249 -9.7353529462 3.8489266542
Co 8.9331964025 4.3055127302 9.39416547
Co -10.1360542697 2.8281320557 -7.5188034687
Co 8.0006610508 -8.7169970356 3.7367682415
Co 15.9061820099 -2.5901055635 4.4987330748
Co -4.9931081037 -12.6252558618 2.9181279493
Co 6.4110401379 -11.4390874632 0.5433011076
Co 0.4054821292 -0.5461156405 10.1799743191
Co -6.8262961961 10.9681881003 -10.3032874101
Co 4.6483865541 -8.7680699064 11.4133826705
Co 11.6285021513 0.8120752721 7.9325682965
Co -1.9386517012 16.300088483 -9.4146944522
Co -6.324499838 7.0126993666 -13.54986452
Co -7.9001267177 2.8194424209 6.6986095512
Co -9.8496252883 6.3535032455 7.9949842447
Co -6.2667200557 -9.3003278328 -1.0321775534
Co -14.2184090518 -6.7466366028 6.0406995201
Co 13.4023170244 0.3755475467 2.7063631333
Co -0.6905639212 8.1726699535 1.9304672279
Co 3.3493225386 -11.0496603646 11.4938656374
Co 11.9065210983 3.0739083506 -4.7766390061
Co -5.2040908475 -15.4269895469 -6.1602592821
Co 2.0400290682 -11.7442248201 -8.5348778173
Co 0.5950008586 -4.9699540285 -13.613010335
Co 0.1695142625 -14.0631974203 -8.2588651667
Co -17.0545331816 1.2966714056 0.0747875817
Co -5.2186910155 -0.1149689277 9.9665970958
Co -5.6321906119 0.0015101519 -7.5150054077
Co 6.4162063803 5.5759759516 9.3278270512
Co 6.7687267377 -8.2254136291 12.5681516351
Co 12.379641446 -6.5506765128 -3.0849191588
Co 0.0291142991 17.9771198239 -0.7164667782
Co -0.2273991451 11.5103230226 -3.4899471746
Co 3.7984368453 -13.129628318 9.3397067086
Co 16.2353971954 -4.7257187478 3.1379953821
Co 13.1055147871 -5.0805504353 6.9618639564
Co 5.672393663 1.0285755866 8.2340884459
Co 11.3926255191 0.2078558352 4.4634518125
Co 0.7830756862 -6.1287713293 -6.9944547441
Co 5.5454354954 2.9577715242 -8.4269276116
Co -11.8660562395 10.1673428698 -4.4214778311
Co -0.5783024507 3.1977620699 9.6751386313
Co -2.8158899531 4.4748774558 9.5399384845
Co 13.1941011603 0.6723871216 6.1503597802
Co 11.073360873 -2.867773127 10.1968849757
Co -5.5485715397 -0.592520075 6.4519679819
Co -1.4219332519 17.7009748566 1.2099868793
Co 12.9213688565 2.6114855769 -9.9916364052
Co 8.800828608 14.461037719 1.7028645365
Co -5.252495471 -9.9902793324 -9.9163063298
Co -8.8654162681 8.5735266887 7.9197319314
Co -2.1421201337 11.1937248771 -1.7594999894
Co 7.7910082171 9.9252454298 -3.257332499
Co 6.2839041485 7.7013197971 10.8820992653
Co 2.8075723332 -12.1501607762 4.1258391981
Co -12.5331431376 -6.806753966 1.0178669866
Co -0.8149277201 -13.4667135158 0.9057839561
Co 0.4931679957 -2.836676796 -12.9168337033
Co -13.345528166 -11.0229066932 -0.8517113373
Co -10.5399970804 12.6679032806 -4.6926047705
Co -5.3019269271 10.6838978272 1.9022660638
Co 8.3635261767 5.5024602245 7.5670761489
Co -2.645914879 -13.0021607106 6.7924750511
Co 12.3654969472 -9.2802166822 5.4065794156
Co -9.6022236225 -6.9669964476 -9.6771656507
Co 6.591026385 -2.5927741173 8.6824010565
Co -2.5631207395 8.0714721663 -13.9303011313
Co -3.3220302782 -9.7583388087 6.2437100326
Co 10.7924618566 1.6090295666 2.4715312029
Co -0.4506851139 -12.5937409121 -9.7758779709
Co 4.9285350068 -16.3561820467 -4.0355821082
Co -8.4287246444 5.7005460516 -0.8668625169
Co 14.0659344598 -0.917918273 -9.0783683483
Co -5.6863072134 -8.0678051368 9.5737109526
Co 2.4505364547 -10.9182909221 -1.5140323674
Co -10.4301323419 0.4019404274 9.1571536177
Co 5.4727779143 -7.9983243014 -0.0339677937
Co -8.6096006604 5.2685426668 -4.422678104
Co 4.1026160829 -15.0880303606 8.4320454723
Co -1.0949036781 -8.7170539392 10.8893066965
Co -11.2812412894 -3.8198438122 8.0219058325
Co 10.8256716394 -4.0022474769 -10.7247923482
Co 7.6533231757 1.730775424 9.8284117895
Co -1.1867615147 12.7982074617 8.5574664714
Co 14.6271488101 -4.905088331 5.1031828367
Co -3.9679517514 -5.1354632125 -5.1793110406
Co 1.0751558988 -9.7913298273 11.4868232677
Co 5.6163013824 -4.2016436018 12.6740984041
Co 3.9462290605 6.2282970646 5.6436762295
Co 1.1964903354 0.7953397849 -14.8998820154
Co 2.5508949569 5.4761713262 -13.9335946033
Co -9.141244065 4.8867272103 -11.3132054964
Co -11.5681236245 -4.4168885295 4.170155952
Co -11.768548971 0.2902344599 -10.2062815287
Co -14.2409758381 -9.3422929123 -2.2531101675
Co 7.0451511383 4.1569130398 11.3012004495
Co -15.2845304774 -5.9897045108 -2.6117606446
Co -8.1719476807 6.135745852 2.6204985758
Co 1.5915343422 11.9664956187 -5.4686039477
Co -3.0508692035 -18.5838009667 -2.2324953131
Co -4.4481496596 -5.7208388106 9.1487441472
Co 3.8831068582 16.7918920259 -2.8688796058
Co 10.3444583084 6.6739479672 8.9811850026
Co -9.7380389053 2.5327344973 8.9376219623
Co 6.6931430372 -9.7115445163 11.0457155087
Co -8.7165210159 -5.5512179516 3.7656218537
Co -13.236135222 0.0574464954 -8.1907492836
Co -13.0445504819 -7.6124096006 -5.9303926848
Co 16.7472069506 1.1971243955 2.3717411237
Co -14.3409814271 3.6769884684 -5.3510804375
Co 9.7002636087 -3.2137412538 -2.286203888
Co -1.2904370867 -6.4202210378 -5.012707562
Co 7.00986529 -7.9351493723 -5.2829648718
Co -0.1067719685 -12.073041458 11.6916922713
Co -1.4222069334 -6.4984753076 12.3196865313
Co -3.7588179189 16.1901035235 -7.4497093634
Co 12.3972971583 -0.2542332839 9.948094193
Co -8.5879390012 -2.2526935119 -5.182987098
Co 0.8916245297 -10.3821994738 7.6005701327
Co 0.8231610059 -10.7798476891 4.0055666506
Co -1.6782100703 -9.5788459145 4.2301733368
Co -7.4138611549 5.0275166139 -13.1907238127
Co 5.2678352545 -2.9545647309 10.3737678652
Co 15.4900539537 -0.6942684469 6.1402205585
Co -16.1488449626 5.2079297049 -2.205079617
Co -8.4039638142 1.098593428 -11.0418390044
Co 1.4799928787 10.2837288806 10.7661638492
Co -1.7816735713 -1.3856171909 -12.9446556928
Co 9.7571880732 -5.0418051745 10.4436081849
Co 5.482465631 -10.8789787295 -8.7679265669
Co 15.1461305177 4.5916501264 2.6837246401
Co 2.4542510828 -9.5304091424 9.5568208339
Co -12.6715226908 4.2181740289 -4.0969356814
Co 0.7008873313 -16.1585572322 8.4974450419
Co 10.5742426893 -7.1378918055 -4.6355839941
Co 8.4433649226 -2.8392899178 2.9111785617
Co -15.0605637957 7.2938594916 -2.1531518505
Co -2.6014165508 -5.294747229 -10.6345796259
Co -7.284010578 -7.8761148038 -6.3006689622
Co 11.4345037146 3.079384038 9.3869059531
Co -1.3846107045 6.9850288464 -8.3797639249
Co -5.7476145052 -2.4008247973 -12.7026088769
Co 4.6951366335 5.5472578905 11.017027846
Co 7.3213853551 -7.6698150012 -2.0207050538
Co 4.1155860349 0.6151955351 10.0550145134
Co 12.16623977 6.5405975042 7.1140212233
Co 2.5076430168 -10.2351683053 -11.8489839508
Co 13.520711952 6.6802165057 5.3361214197
Co -2.584659063 -13.7612827418 2.540342343
Co -5.7299641609 -13.6605352606 -7.77275751
Co -3.1771725211 -1.462391818 10.1221455001
Co -2.0025837068 -12.9639505376 10.0827801075
Co -3.1620499028 -6.8115502327 -3.2348565345
Co -1.1457770094 -16.8468088674 6.6209284167
Co 4.2400766606 8.5093489258 10.920726781
Co 7.3513678956 -4.7684438956 -11.0877205846
Co -11.0296466627 10.8687336888 2.2527692789
Co 14.839922388 3.1473854238 -8.2803697241
Co 0.4304102379 -11.2447484444 0.6002304927
Co -2.135004788 14.4069540783 7.0479469342
Co -16.0092614684 -2.540341129 -3.3311988204
Co 7.5006585366 1.2947995077 6.2959740965
Co -10.2837729716 -5.33691404 9.6535436784
Co 3.9530265583 13.1489019748 8.3560159098
Co -13.0669391994 1.604428348 8.962317165
Co -0.9223753803 -3.2287501624 -14.293522705
Co 2.5502706743 -10.0407934494 5.8574768432
Co -3.3259347441 -3.6826188468 -12.6811522445
Co -16.4444623403 4.6697075754 -5.3298039174
Co -8.2582053624 1.1860179676 10.5427478515
Co -8.609942767 -4.8935663928 -10.1036967257
Co 7.584540706 -14.2143854381 7.9219741753
Co 1.739020338 1.9495402378 9.6735667909
Co -13.7699291711 -2.606631624 7.8289629423
Co 3.1352082164 -9.1974810483 13.3094038629
Co -2.6344974169 -2.8817719948 12.6262991311
Co -2.037941857 6.1756326198 -15.5993635018
Co -8.3843511961 -6.592616647 9.7989535313
Co 9.2691529194 -3.021577532 11.8389479603
Co -1.5746569664 4.386876258 -13.7092084844
Co -4.8211543983 -15.0330485175 -2.2679186332
Co -1.1482593758 -0.7032432512 11.6912023918
Co 2.7563773808 -1.611596623 10.3819348969
Co 8.9585466218 5.096367713 12.8414172703
Co -2.5374740812 -8.8855775774 12.6386709562
Co -2.3326201771 13.2792649689 -0.2042494481
Co 9.9479749213 -13.0460242763 -4.2078988318
Co 9.2884470421 13.051722918 3.6724163726
Co -5.1473252941 9.2253088593 -14.0768436202
Co -3.9254875878 -17.0491028265 -4.5018130827
Co -6.9635811201 5.7309668952 -6.117111015
Co 1.8731273115 -11.5207964611 12.9330953827
Co -3.0150406292 2.1777258524 -13.193629012
Co 2.1561640197 -15.2885999293 -7.617025615
Co -16.307898381 -0.4847591045 -2.1225416113
Co -7.5471309358 7.1737646004 9.4637792069
Co -15.7279348578 -4.4829664901 -4.5290470247
Co 2.1389976137 14.22147653 8.3888052713
Co -0.9729083161 -10.4974774528 9.8757589101
Co 6.1478441741 6.3215137214 3.3911577393
Co -0.4424084052 0.6464400828 -12.9614644113
Co 1.3162616373 -6.5666603541 -11.9782792147
Co -12.21605519 -11.2836687359 -5.5368798278
Co 5.5230419046 -10.4778887153 12.7629068763
Co 14.0660909676 -0.6196293289 8.0297236747
Co -4.5493695683 -3.794644944 10.5128269883
Co -2.9325724961 12.8440854521 9.5488536894
Co -12.1440460077 -1.9278531284 9.5785751585
Co -4.4399703631 -13.7025118039 8.8732996659
Co 12.3387061583 1.8046150771 12.1114674778
Co -13.4281768728 9.9325104046 -2.7500423749
Co -7.1301595932 -2.4660638825 11.084791313
Co 9.4412442813 -13.8976512793 6.0573332017
Co -0.5129687743 11.1252685249 -7.2021429406
Co -0.9987689085 2.5806593651 -15.1646584986
Co 4.5285517988 -9.5036019798 7.4664935575
Co -5.2045107376 6.085831768 -8.0582042314
Co 0.2653665156 4.8740930895 -15.4324098494
Co 16.0830421152 -0.0313702037 -7.409742646
Co 9.945973104 -7.8366824298 -8.3189058473
Co 5.3863917631 4.0901254152 12.5129035947
Co -6.117639924 14.8096706478 5.0420762127
Co -4.8218166142 6.340614324 -4.5499699094
Co -4.5137835665 -11.5953434095 9.8910407653
Co -8.8391116292 15.7808174814 1.4765868732
Co 9.7244734065 3.0079020536 11.5729434373
Co -8.1809607863 -4.7256930869 10.9828881932
Co 6.2690256096 -3.4319958005 4.8416065769
Co -4.2498519804 7.0565348874 -14.9831128301
Co 10.2052623736 0.7999721962 9.9647059067
Co -0.1533429529 -8.8652524489 -11.5675761594
Co 0.966906644 -7.8605824697 12.3337365785
Co 16.381030583 3.3152024062 3.7074751581
Co -8.9241394729 -4.6437920898 -13.1472940652
Co -3.5334306834 15.760146352 -10.9491802397
Co -10.5030049968 -4.8205014684 -11.3156601945
Co -2.9365770269 -1.1447524173 13.8491554079
Co -4.1336842905 2.247908046 9.821716999
Co 4.6913524782 4.4920053637 7.5858235283
Co 2.1416953609 8.9319075604 12.1283098133
Co -10.5460392743 4.7026009954 -5.8787672118
Co -10.012841613 4.5553079387 10.4283914366
Co -2.6845043181 -11.0130277629 -9.6322656292
Co -16.7330546913 -0.2436939667 2.0139131431
Co -9.7932328572 -12.5743451466 -5.4635018356
Co 13.6888992095 1.9725513933 9.6780250913
Co 10.9482157408 -13.7251789633 4.696621899
Co 2.6586776446 -6.5510946069 14.4595314467
Co 0.4859156672 7.3459915017 10.9014171126
Co 8.4842406438 6.5154705195 10.7761459888
Co -2.9065880328 -6.0252778575 -14.007838334
Co -8.8889615514 5.1145633668 -7.8253655492
Co -3.3829680809 12.1008336398 -10.582575977
Co -11.4024732096 -12.9812661285 -3.7033068829
Co 10.4476381962 5.2734119165 10.7892919157
Co -6.9255409282 -4.9495776834 -12.0639680971
Co -3.8791330051 5.7601379953 -13.4888494538
Co -11.5449090416 2.2664589545 11.0512486508
Co 4.0431883092 -4.1981987758 14.4590347788
Co 0.1556883247 -5.2025824739 14.4999599099
Co -5.9694420018 -6.1434235434 11.1503283028
Co 10.638961701 1.5050523611 13.8676127048
Co -7.4913894994 -14.0248527733 -5.8488791647
Co -3.5367175587 13.6957096736 -11.9306413479
Co -3.5462675893 0.5762432596 11.4141854403
Co -5.6448354634 10.9968407913 -12.2903559987
Co 5.919002454 -12.4945595647 11.7392682866
Co -1.1095614432 -5.8222382558 -15.0047262175
Co -0.133452423 -10.2472363823 13.4960492352
Co 2.2979031956 -13.5597381961 11.3271589616
Co -3.6349413908 -2.2060929364 -14.4658148062
Co 10.5410735575 -0.5435102054 11.7940946128
Co -5.2626556056 7.8222239537 10.2863328655
Co 8.8280364133 -7.3053891333 -3.3932383895
Co 7.6134889245 10.521366177 10.6664729885
Co -1.9976098328 3.0628169795 11.1262249293
Co 0.500594184 14.0831094548 9.5634254663
Co -6.8136946418 -15.6572099511 -3.8907582944
Co -7.1319704961 -10.4454066871 9.6247285864
Co 1.9628563546 -4.4805111755 15.6259204212
Co 4.1549536957 1.8802556913 12.9323070737
Co -7.5791237436 14.981566138 -6.9150978842
Co -6.5440012447 -0.0363127178 -14.8653074828
Co 8.1987235712 2.8021817885 13.4600142006
Co 6.5577656839 15.8684107956 1.3765198051
Co -7.7492140874 9.1870780321 10.2199582908
Co 5.4831443545 -15.1967667603 10.3991119511
Co -9.0607576156 14.7149333515 -5.3172023251
Co -7.0382903513 7.4054160961 12.2506604151
Co -9.4141448592 -0.7811781286 -10.2527465692
Co -0.864483689 5.4265347315 10.8075015303
Co 0.1513386086 -11.6320994781 -2.9258980855
Co 12.3385808204 0.0496492887 13.1576870623
Co -15.5323072408 1.3376355658 -5.0289694131
Co -7.8800269904 -14.7047689001 8.2052695458
Co -8.7821478777 -0.5297705529 -13.2450904838
Co -7.0523043223 3.475010888 10.4320492094
Co 4.7935707526 -17.5767837376 3.5198980301
Co 15.2772793572 7.10040048 3.2799144702
Co 4.8573612322 -11.3368794113 -11.3912865224
Co -12.2372595608 3.9617067266 -6.9813991534
Co 2.6000790814 7.527725859 14.0216211297
Co -0.9249288504 0.7571172876 -16.278372547
Co -6.2710170725 -11.9650687118 11.3041240486
Co 6.042214132 -17.5038564244 1.4181228402
Co -4.7987188487 0.2565883046 -13.3005388911
Co -12.2980283862 2.3698250531 -9.3918706788
Co -15.3261281815 6.8733917387 -5.7158307264
Co -10.2656826515 2.8370541673 -10.614472325
Co 17.7428198551 -2.2472779727 2.5605568637
Co -3.549569297 6.4946836314 -17.0660028215
Co -0.0352203545 1.6953218109 11.5887091207
Co -12.1004364069 2.0965294641 -11.8366822464
Co -5.0129832631 -10.0578509466 8.133142522
Co 11.4345686048 13.2803670264 0.7660927043
Co -9.1631564854 -2.458386764 -11.6902536961
Co 9.5475220386 8.7567166136 10.2518865965
Co 15.4071545541 1.5825621996 7.8113574055
Co 13.729289835 -6.6812765903 -8.0004498373
Co -5.6373873773 1.6565084766 -15.458780664
Co 12.5124776096 5.1292713829 8.916371868
Co -3.1018458866 -6.667539758 14.177638498
Co 2.2302575059 12.6332785314 10.0859879797
Co -9.7071907823 16.250528923 -6.6679069675
Co -5.5220307269 -15.8972604219 8.7715542516
Co -4.8455880829 -1.7050601807 11.8463565602
Co -12.5318109757 4.2040486151 -10.2323637406
Co 16.9945651991 1.7718239276 5.7988972272
Co 8.4882833731 10.75781412 7.9958871726
Co -14.0676967013 1.6790938502 -10.3566055053
Co -9.6250642623 2.7450030386 12.2734883628
Co -10.885676047 0.3645844557 -12.479997291
Co -1.7712350177 9.8709154014 13.680874434
Co 17.347600402 -0.2161586669 4.0972213572
Co -10.1888438301 -15.4324021591 3.8049121582
Co 2.1091827169 2.9869499777 12.0540598455
Co 10.1178367887 -4.4212339359 14.0643993374
Co -0.9892633061 0.4513515158 14.716497913
Co -8.6864419466 10.469419823 -11.5796083871
Co 6.9257501427 -9.0056647982 -12.5960223469
Co 9.8278325198 3.384436607 14.8404350914
Co -13.9329748034 3.551663909 -11.6164102445
Co 9.3877275919 -0.744940235 14.2400740377
Co -3.6219979795 9.3075081814 11.8957698347
Co -0.412839856 -0.886556991 16.5586097086
Co -9.6372535633 -14.7144521546 -6.6717581046
Co 6.3462223598 -11.0679843077 -12.9294999073
Co -9.1069510074 0.7810042017 -14.8860299589
Co -7.9127231222 16.8094109685 -8.3654673621
Co -2.3788091894 0.0492533464 -15.0649227625
Co -7.7931031142 16.8358763388 -5.6787929103
Co 5.9535735674 -9.5144400192 -14.7485429963
Co 14.2211271318 5.0070433664 7.3632894567
Co -16.4182118984 -7.8855566786 1.3640528391
Co -6.7680384699 -5.7376388211 -14.0538524513
Co -7.1982287113 10.796760496 -13.7771949322
Co -0.2182320167 -3.184863741 15.6694787824
Co 10.8697165861 -2.3376930483 13.6062049418
Co 1.2675791704 -0.7529475328 14.4731686556
Co -3.8026745163 -5.3125656353 12.5323922436
Co 6.3265181802 -16.5814111848 9.2279749678
Co -8.3674222552 -2.5256040293 -14.3456598524
Co -1.2633672894 -7.5262493288 14.6003272578
Co -7.2907069881 -16.0476499526 -7.2546948846
Co -6.109775999 -17.4220545275 -5.1351835593
Co -8.8749561344 2.9346985412 -12.9353862974
